param n := 60;
param c := 3000
param : V : p w :=
   0	   6	 378
   1	  18	 275
   2	   1	 347
   3	  30	 462
   4	  84	 261
   5	  38	 277
   6	  54	 429
   7	  92	 273
   8	  38	 298
   9	   3	 495
  10	  25	 250
  11	  69	 255
  12	  54	 371
  13	  57	 262
  14	  86	 367
  15	  62	 391
  16	  65	 293
  17	  84	 316
  18	  80	 493
  19	  19	 252
  20	  79	 255
  21	   6	 405
  22	   6	 250
  23	  98	 345
  24	  47	 461
  25	  17	 258
  26	   4	 281
  27	  11	 478
  28	  76	 257
  29	  63	 265
  30	  28	 354
  31	  99	 278
  32	  17	 368
  33	  73	 451
  34	  43	 256
  35	  66	 293
  36	  75	 485
  37	   7	 254
  38	 100	 261
  39	  61	 477
  40	  75	 258
  41	  90	 265
  42	   5	 369
  43	  72	 270
  44	  48	 361
  45	 100	 375
  46	  86	 268
  47	  35	 357
  48	   7	 414
  49	   2	 254
  50	  49	 332
  51	  96	 459
  52	  48	 263
  53	  50	 278
  54	   6	 456
  55	  54	 263
  56	  97	 281
  57	  76	 426
  58	  45	 277
  59	  24	 297
;

set E :=
   0	   1
   0	   2
   0	   6
   0	   9
   0	  13
   0	  15
   0	  16
   0	  17
   0	  21
   0	  22
   0	  24
   0	  26
   0	  27
   0	  28
   0	  32
   0	  33
   0	  34
   0	  36
   0	  38
   0	  40
   0	  42
   0	  43
   0	  44
   0	  46
   0	  49
   0	  55
   0	  56
   0	  58
   0	  59
   1	   2
   1	   5
   1	   6
   1	   8
   1	   9
   1	  11
   1	  13
   1	  14
   1	  21
   1	  22
   1	  23
   1	  25
   1	  26
   1	  29
   1	  34
   1	  35
   1	  36
   1	  37
   1	  41
   1	  44
   1	  48
   1	  53
   1	  55
   1	  58
   2	   3
   2	   4
   2	   5
   2	   6
   2	  10
   2	  11
   2	  12
   2	  13
   2	  15
   2	  16
   2	  19
   2	  20
   2	  22
   2	  27
   2	  29
   2	  31
   2	  34
   2	  37
   2	  40
   2	  43
   2	  45
   2	  47
   2	  48
   2	  49
   2	  51
   2	  52
   2	  53
   2	  57
   3	   6
   3	   7
   3	   9
   3	  10
   3	  14
   3	  16
   3	  17
   3	  19
   3	  20
   3	  21
   3	  22
   3	  23
   3	  24
   3	  25
   3	  27
   3	  28
   3	  29
   3	  30
   3	  34
   3	  38
   3	  39
   3	  42
   3	  43
   3	  45
   3	  49
   3	  50
   3	  52
   3	  53
   3	  54
   3	  55
   3	  56
   3	  57
   3	  59
   4	   5
   4	   6
   4	   8
   4	   9
   4	  10
   4	  12
   4	  14
   4	  16
   4	  22
   4	  28
   4	  30
   4	  31
   4	  32
   4	  33
   4	  34
   4	  40
   4	  42
   4	  43
   4	  44
   4	  49
   4	  50
   4	  51
   4	  53
   4	  55
   4	  56
   4	  57
   5	   6
   5	   9
   5	  10
   5	  11
   5	  13
   5	  14
   5	  15
   5	  17
   5	  18
   5	  19
   5	  29
   5	  34
   5	  37
   5	  38
   5	  41
   5	  42
   5	  43
   5	  46
   5	  47
   5	  48
   5	  49
   5	  51
   5	  52
   5	  55
   5	  56
   5	  58
   6	   7
   6	  10
   6	  12
   6	  13
   6	  14
   6	  15
   6	  16
   6	  18
   6	  19
   6	  20
   6	  22
   6	  23
   6	  27
   6	  28
   6	  31
   6	  33
   6	  34
   6	  35
   6	  40
   6	  41
   6	  42
   6	  44
   6	  52
   6	  54
   6	  55
   6	  56
   6	  58
   7	   8
   7	  11
   7	  12
   7	  14
   7	  15
   7	  17
   7	  19
   7	  20
   7	  21
   7	  24
   7	  25
   7	  26
   7	  29
   7	  30
   7	  35
   7	  36
   7	  38
   7	  40
   7	  41
   7	  44
   7	  45
   7	  46
   7	  47
   7	  49
   7	  51
   7	  54
   7	  56
   7	  57
   7	  58
   8	   9
   8	  14
   8	  15
   8	  16
   8	  19
   8	  20
   8	  21
   8	  22
   8	  24
   8	  27
   8	  30
   8	  31
   8	  33
   8	  36
   8	  38
   8	  41
   8	  43
   8	  44
   8	  45
   8	  46
   8	  47
   8	  49
   8	  56
   8	  59
   9	  10
   9	  11
   9	  12
   9	  13
   9	  14
   9	  15
   9	  17
   9	  26
   9	  27
   9	  28
   9	  33
   9	  36
   9	  39
   9	  42
   9	  45
   9	  47
   9	  48
   9	  49
   9	  52
   9	  56
   9	  57
   9	  59
  10	  17
  10	  18
  10	  19
  10	  21
  10	  24
  10	  26
  10	  27
  10	  28
  10	  29
  10	  30
  10	  33
  10	  34
  10	  35
  10	  38
  10	  39
  10	  40
  10	  42
  10	  43
  10	  44
  10	  46
  10	  49
  10	  50
  10	  53
  10	  54
  10	  57
  10	  58
  11	  12
  11	  13
  11	  14
  11	  15
  11	  16
  11	  17
  11	  18
  11	  20
  11	  21
  11	  25
  11	  29
  11	  37
  11	  38
  11	  39
  11	  42
  11	  44
  11	  47
  11	  49
  11	  51
  11	  53
  11	  55
  11	  58
  11	  59
  12	  13
  12	  14
  12	  16
  12	  18
  12	  19
  12	  20
  12	  24
  12	  27
  12	  28
  12	  35
  12	  37
  12	  39
  12	  45
  12	  49
  12	  50
  12	  51
  12	  53
  12	  54
  12	  55
  12	  59
  13	  14
  13	  15
  13	  18
  13	  19
  13	  20
  13	  21
  13	  23
  13	  24
  13	  25
  13	  26
  13	  27
  13	  28
  13	  30
  13	  35
  13	  36
  13	  38
  13	  39
  13	  40
  13	  41
  13	  43
  13	  45
  13	  47
  13	  48
  13	  49
  13	  55
  13	  56
  13	  57
  13	  58
  13	  59
  14	  16
  14	  19
  14	  20
  14	  21
  14	  23
  14	  24
  14	  25
  14	  26
  14	  28
  14	  29
  14	  30
  14	  31
  14	  33
  14	  35
  14	  36
  14	  38
  14	  40
  14	  41
  14	  51
  14	  52
  14	  54
  14	  56
  15	  16
  15	  18
  15	  19
  15	  20
  15	  22
  15	  23
  15	  26
  15	  27
  15	  34
  15	  37
  15	  40
  15	  41
  15	  42
  15	  44
  15	  45
  15	  46
  15	  47
  15	  50
  15	  51
  15	  55
  15	  56
  15	  58
  15	  59
  16	  18
  16	  19
  16	  21
  16	  22
  16	  23
  16	  25
  16	  28
  16	  29
  16	  31
  16	  34
  16	  35
  16	  40
  16	  44
  16	  45
  16	  49
  16	  51
  16	  52
  16	  54
  16	  55
  16	  58
  16	  59
  17	  18
  17	  19
  17	  21
  17	  25
  17	  26
  17	  29
  17	  31
  17	  33
  17	  35
  17	  36
  17	  40
  17	  41
  17	  45
  17	  46
  17	  47
  17	  50
  17	  51
  17	  52
  17	  55
  17	  57
  17	  58
  17	  59
  18	  19
  18	  20
  18	  22
  18	  25
  18	  26
  18	  28
  18	  30
  18	  33
  18	  38
  18	  43
  18	  44
  18	  45
  18	  46
  18	  48
  18	  51
  18	  52
  18	  53
  18	  56
  18	  57
  18	  58
  18	  59
  19	  20
  19	  25
  19	  26
  19	  27
  19	  30
  19	  36
  19	  38
  19	  42
  19	  45
  19	  46
  19	  47
  19	  52
  19	  53
  19	  55
  19	  56
  19	  57
  19	  58
  20	  21
  20	  22
  20	  24
  20	  26
  20	  27
  20	  28
  20	  33
  20	  35
  20	  38
  20	  40
  20	  49
  20	  52
  20	  55
  20	  56
  20	  58
  21	  22
  21	  24
  21	  27
  21	  29
  21	  32
  21	  33
  21	  34
  21	  35
  21	  36
  21	  42
  21	  43
  21	  46
  21	  47
  21	  48
  21	  49
  21	  51
  21	  52
  21	  55
  21	  56
  21	  57
  21	  58
  21	  59
  22	  23
  22	  24
  22	  25
  22	  26
  22	  27
  22	  28
  22	  30
  22	  34
  22	  35
  22	  38
  22	  39
  22	  40
  22	  41
  22	  45
  22	  46
  22	  48
  22	  49
  22	  55
  22	  57
  23	  28
  23	  29
  23	  30
  23	  33
  23	  34
  23	  36
  23	  38
  23	  40
  23	  41
  23	  43
  23	  45
  23	  48
  23	  49
  23	  50
  23	  51
  23	  52
  23	  54
  24	  25
  24	  27
  24	  29
  24	  32
  24	  33
  24	  34
  24	  36
  24	  37
  24	  38
  24	  40
  24	  42
  24	  44
  24	  45
  24	  47
  24	  49
  24	  50
  24	  53
  25	  27
  25	  29
  25	  31
  25	  33
  25	  39
  25	  41
  25	  42
  25	  44
  25	  46
  25	  47
  25	  48
  25	  51
  25	  52
  25	  54
  25	  55
  25	  56
  25	  58
  26	  28
  26	  29
  26	  30
  26	  32
  26	  33
  26	  35
  26	  36
  26	  40
  26	  41
  26	  44
  26	  46
  26	  48
  26	  50
  26	  51
  26	  52
  26	  53
  26	  54
  26	  56
  26	  58
  27	  29
  27	  30
  27	  31
  27	  32
  27	  33
  27	  34
  27	  35
  27	  36
  27	  39
  27	  42
  27	  49
  27	  50
  27	  52
  27	  56
  27	  58
  27	  59
  28	  29
  28	  30
  28	  33
  28	  39
  28	  41
  28	  45
  28	  46
  28	  49
  28	  52
  28	  55
  28	  59
  29	  31
  29	  32
  29	  33
  29	  34
  29	  35
  29	  36
  29	  38
  29	  39
  29	  42
  29	  43
  29	  47
  29	  48
  29	  50
  29	  53
  29	  55
  29	  58
  30	  32
  30	  33
  30	  36
  30	  39
  30	  40
  30	  41
  30	  43
  30	  44
  30	  46
  30	  47
  30	  50
  30	  53
  30	  57
  31	  32
  31	  34
  31	  35
  31	  36
  31	  37
  31	  39
  31	  40
  31	  41
  31	  42
  31	  44
  31	  45
  31	  49
  31	  51
  31	  53
  31	  56
  31	  58
  32	  36
  32	  37
  32	  39
  32	  40
  32	  41
  32	  42
  32	  43
  32	  44
  32	  48
  32	  50
  32	  53
  32	  55
  32	  58
  32	  59
  33	  34
  33	  35
  33	  36
  33	  38
  33	  40
  33	  46
  33	  47
  33	  50
  33	  51
  33	  53
  33	  54
  33	  55
  33	  56
  33	  57
  33	  58
  34	  37
  34	  38
  34	  42
  34	  43
  34	  44
  34	  45
  34	  46
  34	  47
  34	  48
  34	  49
  34	  50
  34	  51
  34	  54
  34	  55
  34	  56
  34	  58
  34	  59
  35	  37
  35	  38
  35	  41
  35	  43
  35	  45
  35	  46
  35	  47
  35	  48
  35	  49
  35	  52
  35	  54
  35	  56
  35	  59
  36	  37
  36	  41
  36	  42
  36	  44
  36	  46
  36	  47
  36	  48
  36	  49
  36	  50
  36	  51
  36	  53
  36	  54
  36	  57
  37	  38
  37	  39
  37	  41
  37	  43
  37	  46
  37	  47
  37	  49
  37	  50
  37	  51
  37	  53
  37	  56
  37	  57
  37	  59
  38	  42
  38	  45
  38	  46
  38	  47
  38	  48
  38	  52
  38	  54
  38	  56
  38	  58
  39	  41
  39	  43
  39	  49
  39	  51
  39	  55
  39	  56
  39	  57
  40	  41
  40	  42
  40	  43
  40	  45
  40	  47
  40	  48
  40	  49
  40	  51
  40	  52
  40	  53
  40	  57
  40	  59
  41	  42
  41	  44
  41	  46
  41	  47
  41	  48
  41	  49
  41	  51
  41	  52
  41	  54
  41	  55
  41	  56
  41	  57
  41	  58
  42	  47
  42	  48
  42	  49
  42	  50
  42	  52
  42	  53
  42	  55
  42	  56
  42	  57
  42	  58
  42	  59
  43	  44
  43	  45
  43	  46
  43	  47
  43	  49
  43	  50
  43	  51
  43	  52
  43	  53
  43	  54
  43	  57
  43	  58
  44	  48
  44	  53
  44	  54
  44	  55
  44	  57
  45	  46
  45	  47
  45	  48
  45	  52
  45	  55
  45	  56
  45	  57
  46	  49
  46	  53
  46	  56
  46	  58
  46	  59
  47	  48
  47	  49
  47	  50
  47	  51
  47	  53
  47	  54
  47	  56
  48	  54
  48	  55
  48	  57
  49	  51
  49	  53
  49	  57
  49	  58
  49	  59
  50	  52
  50	  54
  50	  55
  50	  57
  50	  59
  51	  53
  51	  54
  51	  56
  51	  58
  51	  59
  52	  53
  52	  54
  52	  58
  53	  56
  53	  57
  53	  58
  54	  57
  54	  58
  54	  59
  55	  56
  55	  57
  55	  58
  55	  59
  56	  57
  56	  58
  56	  59
  57	  58
  57	  59
  58	  59
;
